RT is False
Default write of storage_offers_DA.csv just to have a file (but constraint should be inactive)
Reading model...
...model read.
creating competitive generators file...
...competitive generators recorded.
Loading data...
.. day-ahead data with real-time VRE data read.
Compiling instance...
...instance created.
Creating Offer Mitigation (model will solve as dispatch if TRUE)...
NOTE: storage offers will not be mitigated
...storage offer mitigation file created
Converting model to MPEC...
...converted
NOTE: initial MIP solve with only storage competitive to get feasible solution
Solving...

Welcome to IBM(R) ILOG(R) CPLEX(R) Interactive Optimizer 12.9.0.0
  with Simplex, Mixed Integer & Barrier Optimizers
5725-A06 5725-A29 5724-Y48 5724-Y49 5724-Y54 5724-Y55 5655-Y21
Copyright IBM Corp. 1988, 2019.  All Rights Reserved.

Type 'help' for a list of available commands.
Type 'help' followed by a command name for more
information on commands.

CPLEX> Logfile 'cplex.log' closed.
Logfile 'C:\Users\llavin\Desktop\test826\logs\tmpbjqpoqhp.cplex.log' open.
CPLEX> New value for parallel optimization mode: -1
CPLEX> New value for mixed integer optimality gap tolerance: 0.01
CPLEX> New value for integrality tolerance: 1e-09
CPLEX> New value for feasibility tolerance: 0.001
CPLEX> New value for deterministic time limit in ticks: 75000
CPLEX> Problem 'C:\Users\llavin\Desktop\test826\logs\tmpv_c3zcan.pyomo.lp' read.
Read time = 0.23 sec. (14.73 ticks)
CPLEX> Problem name         : C:\Users\llavin\Desktop\test826\logs\tmpv_c3zcan.pyomo.lp
Objective sense      : Maximize
Variables            :   53805  [Nneg: 1,  Box: 22000,  Free: 4464,
                                 Binary: 27340]
Objective nonzeros   :    9029
Linear constraints   :  123205  [Less: 41346,  Greater: 59096,  Equal: 22763]
  Nonzeros           :  291753
  RHS nonzeros       :   67491

Variables            : Min LB: -5000.000        Max UB: 1000000.       
Objective nonzeros   : Min   : 0.2250000        Max   : 2500.000       
Linear constraints   :
  Nonzeros           : Min   : 0.2250000        Max   : 1000000.       
  RHS nonzeros       : Min   : 0.2250000        Max   : 1000000.       
CPLEX> CPXPARAM_Parallel                                -1
CPXPARAM_Simplex_Tolerances_Feasibility          0.001
CPXPARAM_DetTimeLimit                            75000
CPXPARAM_MIP_Tolerances_MIPGap                   0.01
CPXPARAM_MIP_Tolerances_Integrality              1.0000000000000001e-09
Tried aggregator 3 times.
MIP Presolve eliminated 88645 rows and 18969 columns.
MIP Presolve added 3380 rows and 0 columns.
MIP Presolve modified 24866 coefficients.
Aggregator did 13002 substitutions.
Reduced MIP has 24938 rows, 21278 columns, and 71118 nonzeros.
Reduced MIP has 8416 binaries, 0 generals, 0 SOSs, and 0 indicators.
Presolve time = 0.28 sec. (172.67 ticks)
Probing fixed 409 vars, tightened 2879 bounds.
Probing time = 1.23 sec. (894.72 ticks)
Tried aggregator 2 times.
MIP Presolve eliminated 926 rows and 826 columns.
MIP Presolve modified 2213 coefficients.
Aggregator did 35 substitutions.
Reduced MIP has 23977 rows, 20417 columns, and 68320 nonzeros.
Reduced MIP has 8004 binaries, 0 generals, 0 SOSs, and 0 indicators.
Presolve time = 0.11 sec. (68.76 ticks)
Probing fixed 4 vars, tightened 10 bounds.
Probing time = 0.19 sec. (116.75 ticks)
Clique table members: 8432.
MIP emphasis: balance optimality and feasibility.
MIP search method: dynamic search.
Parallel mode: opportunistic, using up to 32 threads.
Root relaxation solution time = 0.48 sec. (604.85 ticks)

        Nodes                                         Cuts/
   Node  Left     Objective  IInf  Best Integer    Best Bound    ItCnt     Gap

      0     0     3964.3813   637                   3964.3813     6554         
*     0+    0                         3964.3813     3964.3813             0.00%
      0     0        cutoff           3964.3813     3964.3813     6554    0.00%
Elapsed time = 3.72 sec. (2846.35 ticks, tree = 0.01 MB, solutions = 1)

Root node processing (before b&c):
  Real time             =    3.73 sec. (2848.18 ticks)
Parallel b&c, 32 threads:
  Real time             =    0.00 sec. (0.00 ticks)
  Sync time (average)   =    0.00 sec.
  Wait time (average)   =    0.00 sec.
                          ------------
Total (root+branch&cut) =    3.73 sec. (2848.18 ticks)

Solution pool: 1 solution saved.

MIP - Integer optimal solution:  Objective =  3.9643813170e+03
Solution time =    3.75 sec.  Iterations = 6554  Nodes = 0
Deterministic time = 2848.33 ticks  (759.56 ticks/sec)

CPLEX> Incumbent solution written to file 'C:\Users\llavin\Desktop\test826\logs\tmpz4gnkkte.cplex.sol'.
CPLEX> NOTE: no warmstart specified for MIP iteration, default behavior is true
NOTE: resolving with all competitive generators using storage-only solution to warmstart
Solving...

Welcome to IBM(R) ILOG(R) CPLEX(R) Interactive Optimizer 12.9.0.0
  with Simplex, Mixed Integer & Barrier Optimizers
5725-A06 5725-A29 5724-Y48 5724-Y49 5724-Y54 5724-Y55 5655-Y21
Copyright IBM Corp. 1988, 2019.  All Rights Reserved.

Type 'help' for a list of available commands.
Type 'help' followed by a command name for more
information on commands.

CPLEX> Logfile 'cplex.log' closed.
Logfile 'C:\Users\llavin\Desktop\test826\logs\tmpevo0m_h8.cplex.log' open.
CPLEX> New value for parallel optimization mode: -1
CPLEX> New value for mixed integer optimality gap tolerance: 0.01
CPLEX> New value for integrality tolerance: 1e-09
CPLEX> New value for feasibility tolerance: 0.001
CPLEX> New value for deterministic time limit in ticks: 75000
CPLEX> Problem 'C:\Users\llavin\Desktop\test826\logs\tmpao4mk6bi.pyomo.lp' read.
Read time = 0.25 sec. (14.75 ticks)
CPLEX> MIP start file 'C:\Users\llavin\Desktop\test826\logs\tmpycno9j4p.cplex.mst' read.
CPLEX> Problem name         : C:\Users\llavin\Desktop\test826\logs\tmpao4mk6bi.pyomo.lp
Objective sense      : Maximize
Variables            :   54525  [Nneg: 1,  Box: 22720,  Free: 4464,
                                 Binary: 27340]
Objective nonzeros   :    9749
Linear constraints   :  123205  [Less: 41346,  Greater: 59096,  Equal: 22763]
  Nonzeros           :  291753
  RHS nonzeros       :   67491

Variables            : Min LB: -5000.000        Max UB: 1000000.       
Objective nonzeros   : Min   : 0.2250000        Max   : 2500.000       
Linear constraints   :
  Nonzeros           : Min   : 0.2250000        Max   : 1000000.       
  RHS nonzeros       : Min   : 0.2250000        Max   : 1000000.       
CPLEX> CPXPARAM_Parallel                                -1
CPXPARAM_Simplex_Tolerances_Feasibility          0.001
CPXPARAM_DetTimeLimit                            75000
CPXPARAM_MIP_Tolerances_MIPGap                   0.01
CPXPARAM_MIP_Tolerances_Integrality              1.0000000000000001e-09
Warning:  No solution found from 1 MIP starts.
Retaining values of one MIP start for possible repair.
Tried aggregator 3 times.
MIP Presolve eliminated 88645 rows and 19689 columns.
MIP Presolve added 3380 rows and 0 columns.
MIP Presolve modified 24866 coefficients.
Aggregator did 13002 substitutions.
Reduced MIP has 24938 rows, 21278 columns, and 71118 nonzeros.
Reduced MIP has 8416 binaries, 0 generals, 0 SOSs, and 0 indicators.
Presolve time = 0.30 sec. (173.02 ticks)
Probing fixed 409 vars, tightened 2879 bounds.
Probing time = 1.31 sec. (894.72 ticks)
Tried aggregator 2 times.
MIP Presolve eliminated 926 rows and 826 columns.
MIP Presolve modified 2213 coefficients.
Aggregator did 35 substitutions.
Reduced MIP has 23977 rows, 20417 columns, and 68320 nonzeros.
Reduced MIP has 8004 binaries, 0 generals, 0 SOSs, and 0 indicators.
Presolve time = 0.11 sec. (68.76 ticks)
Probing fixed 4 vars, tightened 10 bounds.
Probing time = 0.19 sec. (116.75 ticks)
Clique table members: 8432.
MIP emphasis: balance optimality and feasibility.
MIP search method: dynamic search.
Parallel mode: opportunistic, using up to 32 threads.
Root relaxation solution time = 0.52 sec. (604.85 ticks)

        Nodes                                         Cuts/
   Node  Left     Objective  IInf  Best Integer    Best Bound    ItCnt     Gap

      0     0     3964.3813   637                   3964.3813     6554         
*     0+    0                         3964.3813     3964.3813             0.00%
      0     0        cutoff           3964.3813     3964.3813     6554    0.00%
Elapsed time = 4.02 sec. (2874.00 ticks, tree = 0.01 MB, solutions = 1)

Root node processing (before b&c):
  Real time             =    4.03 sec. (2875.85 ticks)
Parallel b&c, 32 threads:
  Real time             =    0.00 sec. (0.00 ticks)
  Sync time (average)   =    0.00 sec.
  Wait time (average)   =    0.00 sec.
                          ------------
Total (root+branch&cut) =    4.03 sec. (2875.85 ticks)

Solution pool: 1 solution saved.

MIP - Integer optimal solution:  Objective =  3.9643813170e+03
Solution time =    4.05 sec.  Iterations = 6554  Nodes = 0
Deterministic time = 2876.01 ticks  (710.65 ticks/sec)

CPLEX> Incumbent solution written to file 'C:\Users\llavin\Desktop\test826\logs\tmptq977m9o.cplex.sol'.
CPLEX> Exporting results... 
